Route #1: 77 23 44 26 11 64 40 53
Route #2: 10 68 18 25 42 16 66 60 6
Route #3: 41 14 36 59 35 55 33 13 48
Route #4: 50 61 39 74 28 4 19 9
Route #5: 62 54 20 3 31 46 34
Route #6: 8 22 71 15 12 51
Route #7: 57 7 76 32 73 45
Route #8: 75 29 70 37 30 5
Route #9: 2 27 63 49 65 47 56
Route #10: 1 52 24 21 43 67 69 38 58
Route #11: 72 17
Cost 1292